(declare-const a Real)
(declare-const b Real)
(declare-const c Real)
(assert (= (* a b c) 1))
(assert (> a 0))
(assert (> b 0))
(assert (> c 0))
(assert (not (<= (+ (pow (* (+ (pow a 2) (pow b 2)) (+ (* 173249077824 (pow a 6)) (* 173249077824 (pow b 6)))) (/ 1 2)) (* -56555072 (pow b 4)) (* -43382336 (pow a 4)) (* -113246208 (pow a (pow 3 -1)) (pow b (/ 11 3))) (* -56623104 (pow a (/ 10 3)) (pow b (/ 2 3))) (* 2497392 (pow a 2) (pow b 2)) (* 63442592 b (pow a 3)) (* 203034272 a (pow b 3))) 0)))
(check-sat)
(get-model)
(exit)